(set-option :produce-models true)
(set-option :produce-unsat-cores true)
(set-option :produce-interpolants true)
(set-option :interpolant-check-mode true)
(set-option :proof-transformation LU)
(set-logic ALL)
(set-info :source |SMT script generated on 2024-03-30T23:50:19+01:00 by Ultimate (https://ultimate.informatik.uni-freiburg.de/)|)
(set-info :smt-lib-version 2.5)
(set-info :category "industrial")
(set-info :ultimate-id standard_minInArray_ground-2.i_AllErrorsAtOnce_Iteration13)
(declare-fun |c_old(#valid)| () (Array Int Int))
(declare-fun |c_old(#valid)_primed| () (Array Int Int))
(declare-fun |c_#valid| () (Array Int Int))
(declare-fun |c_#valid_primed| () (Array Int Int))
(declare-fun |c_old(#length)| () (Array Int Int))
(declare-fun |c_old(#length)_primed| () (Array Int Int))
(declare-fun |c_#length| () (Array Int Int))
(declare-fun |c_#length_primed| () (Array Int Int))
(declare-fun |c_old(#memory_int#0)| () (Array Int (Array Int Int)))
(declare-fun |c_old(#memory_int#0)_primed| () (Array Int (Array Int Int)))
(declare-fun |c_#memory_int#0| () (Array Int (Array Int Int)))
(declare-fun |c_#memory_int#0_primed| () (Array Int (Array Int Int)))
(declare-fun |c_old(#memory_int#1)| () (Array Int (Array Int Int)))
(declare-fun |c_old(#memory_int#1)_primed| () (Array Int (Array Int Int)))
(declare-fun |c_#memory_int#1| () (Array Int (Array Int Int)))
(declare-fun |c_#memory_int#1_primed| () (Array Int (Array Int Int)))
(declare-fun |c_old(#StackHeapBarrier)| () Int)
(declare-fun |c_old(#StackHeapBarrier)_primed| () Int)
(declare-fun |c_#StackHeapBarrier| () Int)
(declare-fun |c_#StackHeapBarrier_primed| () Int)
(declare-fun |c_reach_error_#t~nondet0.base| () Int)
(declare-fun |c_reach_error_#t~nondet0.base_primed| () Int)
(declare-fun |c_reach_error_#t~nondet0.offset| () Int)
(declare-fun |c_reach_error_#t~nondet0.offset_primed| () Int)
(declare-fun |c_#Ultimate.allocInit_~size| () Int)
(declare-fun |c_#Ultimate.allocInit_~size_primed| () Int)
(declare-fun |c_#Ultimate.allocInit_ptrBase| () Int)
(declare-fun |c_#Ultimate.allocInit_ptrBase_primed| () Int)
(declare-fun |c_read~int#1_#ptr.base| () Int)
(declare-fun |c_read~int#1_#ptr.base_primed| () Int)
(declare-fun |c_read~int#1_#ptr.offset| () Int)
(declare-fun |c_read~int#1_#ptr.offset_primed| () Int)
(declare-fun |c_read~int#1_#sizeOfReadType| () Int)
(declare-fun |c_read~int#1_#sizeOfReadType_primed| () Int)
(declare-fun |c_read~int#1_#value| () Int)
(declare-fun |c_read~int#1_#value_primed| () Int)
(declare-fun |c_read~int#0_#ptr.base| () Int)
(declare-fun |c_read~int#0_#ptr.base_primed| () Int)
(declare-fun |c_read~int#0_#ptr.offset| () Int)
(declare-fun |c_read~int#0_#ptr.offset_primed| () Int)
(declare-fun |c_read~int#0_#sizeOfReadType| () Int)
(declare-fun |c_read~int#0_#sizeOfReadType_primed| () Int)
(declare-fun |c_read~int#0_#value| () Int)
(declare-fun |c_read~int#0_#value_primed| () Int)
(declare-fun |c_main_#res| () Int)
(declare-fun |c_main_#res_primed| () Int)
(declare-fun |c_main_#t~nondet1| () Int)
(declare-fun |c_main_#t~nondet1_primed| () Int)
(declare-fun |c_main_#t~post2| () Int)
(declare-fun |c_main_#t~post2_primed| () Int)
(declare-fun |c_main_#t~mem3| () Int)
(declare-fun |c_main_#t~mem3_primed| () Int)
(declare-fun |c_main_#t~mem4| () Int)
(declare-fun |c_main_#t~mem4_primed| () Int)
(declare-fun |c_main_#t~mem5| () Int)
(declare-fun |c_main_#t~mem5_primed| () Int)
(declare-fun |c_main_#t~post6| () Int)
(declare-fun |c_main_#t~post6_primed| () Int)
(declare-fun |c_main_~#a~0.base| () Int)
(declare-fun |c_main_~#a~0.base_primed| () Int)
(declare-fun |c_main_~#a~0.offset| () Int)
(declare-fun |c_main_~#a~0.offset_primed| () Int)
(declare-fun c_main_~min~0 () Int)
(declare-fun c_main_~min~0_primed () Int)
(declare-fun c_main_~i~0 () Int)
(declare-fun c_main_~i~0_primed () Int)
(declare-fun c_main_~x~0 () Int)
(declare-fun c_main_~x~0_primed () Int)
(declare-fun |c_#Ultimate.allocOnStack_~size| () Int)
(declare-fun |c_#Ultimate.allocOnStack_~size_primed| () Int)
(declare-fun |c_#Ultimate.allocOnStack_#res.base| () Int)
(declare-fun |c_#Ultimate.allocOnStack_#res.base_primed| () Int)
(declare-fun |c_#Ultimate.allocOnStack_#res.offset| () Int)
(declare-fun |c_#Ultimate.allocOnStack_#res.offset_primed| () Int)
(declare-fun |c_write~int#0_#value| () Int)
(declare-fun |c_write~int#0_#value_primed| () Int)
(declare-fun |c_write~int#0_#ptr.base| () Int)
(declare-fun |c_write~int#0_#ptr.base_primed| () Int)
(declare-fun |c_write~int#0_#ptr.offset| () Int)
(declare-fun |c_write~int#0_#ptr.offset_primed| () Int)
(declare-fun |c_write~int#0_#sizeOfWrittenType| () Int)
(declare-fun |c_write~int#0_#sizeOfWrittenType_primed| () Int)
(declare-fun |c_write~int#1_#value| () Int)
(declare-fun |c_write~int#1_#value_primed| () Int)
(declare-fun |c_write~int#1_#ptr.base| () Int)
(declare-fun |c_write~int#1_#ptr.base_primed| () Int)
(declare-fun |c_write~int#1_#ptr.offset| () Int)
(declare-fun |c_write~int#1_#ptr.offset_primed| () Int)
(declare-fun |c_write~int#1_#sizeOfWrittenType| () Int)
(declare-fun |c_write~int#1_#sizeOfWrittenType_primed| () Int)
(declare-fun |c___assert_#in~__assertion.base| () Int)
(declare-fun |c___assert_#in~__assertion.base_primed| () Int)
(declare-fun |c___assert_#in~__assertion.offset| () Int)
(declare-fun |c___assert_#in~__assertion.offset_primed| () Int)
(declare-fun |c___assert_#in~__file.base| () Int)
(declare-fun |c___assert_#in~__file.base_primed| () Int)
(declare-fun |c___assert_#in~__file.offset| () Int)
(declare-fun |c___assert_#in~__file.offset_primed| () Int)
(declare-fun |c___assert_#in~__line| () Int)
(declare-fun |c___assert_#in~__line_primed| () Int)
(declare-fun |c___VERIFIER_nondet_int_#res| () Int)
(declare-fun |c___VERIFIER_nondet_int_#res_primed| () Int)
(declare-fun |c_ULTIMATE.start_#t~ret7| () Int)
(declare-fun |c_ULTIMATE.start_#t~ret7_primed| () Int)
(declare-fun |c___VERIFIER_assert_#in~cond| () Int)
(declare-fun |c___VERIFIER_assert_#in~cond_primed| () Int)
(declare-fun c___VERIFIER_assert_~cond () Int)
(declare-fun c___VERIFIER_assert_~cond_primed () Int)
(declare-fun |c_write~init~int#1_#value| () Int)
(declare-fun |c_write~init~int#1_#value_primed| () Int)
(declare-fun |c_write~init~int#1_#ptr.base| () Int)
(declare-fun |c_write~init~int#1_#ptr.base_primed| () Int)
(declare-fun |c_write~init~int#1_#ptr.offset| () Int)
(declare-fun |c_write~init~int#1_#ptr.offset_primed| () Int)
(declare-fun |c_write~init~int#1_#sizeOfWrittenType| () Int)
(declare-fun |c_write~init~int#1_#sizeOfWrittenType_primed| () Int)
(declare-fun |c___assert_fail_#in~__assertion.base| () Int)
(declare-fun |c___assert_fail_#in~__assertion.base_primed| () Int)
(declare-fun |c___assert_fail_#in~__assertion.offset| () Int)
(declare-fun |c___assert_fail_#in~__assertion.offset_primed| () Int)
(declare-fun |c___assert_fail_#in~__file.base| () Int)
(declare-fun |c___assert_fail_#in~__file.base_primed| () Int)
(declare-fun |c___assert_fail_#in~__file.offset| () Int)
(declare-fun |c___assert_fail_#in~__file.offset_primed| () Int)
(declare-fun |c___assert_fail_#in~__line| () Int)
(declare-fun |c___assert_fail_#in~__line_primed| () Int)
(declare-fun |c___assert_fail_#in~__function.base| () Int)
(declare-fun |c___assert_fail_#in~__function.base_primed| () Int)
(declare-fun |c___assert_fail_#in~__function.offset| () Int)
(declare-fun |c___assert_fail_#in~__function.offset_primed| () Int)
(declare-fun |c___assert_perror_fail_#in~__errnum| () Int)
(declare-fun |c___assert_perror_fail_#in~__errnum_primed| () Int)
(declare-fun |c___assert_perror_fail_#in~__file.base| () Int)
(declare-fun |c___assert_perror_fail_#in~__file.base_primed| () Int)
(declare-fun |c___assert_perror_fail_#in~__file.offset| () Int)
(declare-fun |c___assert_perror_fail_#in~__file.offset_primed| () Int)
(declare-fun |c___assert_perror_fail_#in~__line| () Int)
(declare-fun |c___assert_perror_fail_#in~__line_primed| () Int)
(declare-fun |c___assert_perror_fail_#in~__function.base| () Int)
(declare-fun |c___assert_perror_fail_#in~__function.base_primed| () Int)
(declare-fun |c___assert_perror_fail_#in~__function.offset| () Int)
(declare-fun |c___assert_perror_fail_#in~__function.offset_primed| () Int)
(declare-fun |c_write~init~int#0_#value| () Int)
(declare-fun |c_write~init~int#0_#value_primed| () Int)
(declare-fun |c_write~init~int#0_#ptr.base| () Int)
(declare-fun |c_write~init~int#0_#ptr.base_primed| () Int)
(declare-fun |c_write~init~int#0_#ptr.offset| () Int)
(declare-fun |c_write~init~int#0_#ptr.offset_primed| () Int)
(declare-fun |c_write~init~int#0_#sizeOfWrittenType| () Int)
(declare-fun |c_write~init~int#0_#sizeOfWrittenType_primed| () Int)
(declare-fun c_ULTIMATE.dealloc_~addr.base () Int)
(declare-fun c_ULTIMATE.dealloc_~addr.base_primed () Int)
(declare-fun c_ULTIMATE.dealloc_~addr.offset () Int)
(declare-fun c_ULTIMATE.dealloc_~addr.offset_primed () Int)
(declare-fun |c_aux_v_main_#t~nondet1_3| () Int)
(declare-fun |c_aux_v_ULTIMATE.start_#t~ret7_3| () Int)
(declare-fun |c_aux_v_main_#t~nondet1_5| () Int)
(declare-fun |c_aux_v_main_#t~nondet1_7| () Int)
(declare-fun c_aux_v_ArrVal_1 () Int)
(declare-fun c_aux_v_ArrVal_2 () Int)
(declare-fun c_aux_v_ArrVal_4 () Int)
(declare-fun c_aux_v_ArrVal_3 () Int)
(declare-fun c_aux_v_ArrVal_5 () Int)
(declare-fun c_aux_v_ArrVal_6 () Int)
(declare-fun c_aux_v_ArrVal_8 () (Array Int Int))
(declare-fun |c_aux_v_main_#t~nondet1_8| () Int)
(declare-fun c_aux_v_ArrVal_7 () Int)
(declare-fun c_aux_v_ArrVal_9 () Int)
(declare-fun c_aux_v_ArrVal_10 () Int)
(declare-fun c_aux_v_ArrVal_11 () (Array Int Int))
(declare-fun |c_aux_v_main_#t~nondet1_9| () Int)
(declare-fun c_aux_v_ArrVal_12 () Int)
(declare-fun |c_aux_v_main_#t~nondet1_10| () Int)
(declare-fun c_aux_v_ArrVal_13 () Int)
(declare-fun c_aux_v_ArrVal_14 () (Array Int Int))
(declare-fun c_aux_v_ArrVal_15 () Int)
(declare-fun c_aux_v_ArrVal_16 () Int)
(declare-fun c_aux_v_ArrVal_17 () Int)
(declare-fun |c_aux_v_main_#t~nondet1_11| () Int)
(declare-fun c_aux_v_ArrVal_18 () (Array Int Int))
(declare-fun c_aux_v_ArrVal_19 () Int)
(declare-fun |c_aux_v_main_#t~nondet1_12| () Int)
(declare-fun c_aux_v_ArrVal_20 () (Array Int Int))
(declare-fun c_aux_v_ArrVal_22 () (Array Int Int))
(declare-fun |c_aux_v_main_#t~nondet1_13| () Int)
(declare-fun c_aux_v_ArrVal_21 () Int)
(declare-fun c_aux_v_ArrVal_24 () Int)
(declare-fun c_aux_v_ArrVal_23 () Int)
(declare-fun c_aux_v_ArrVal_26 () Int)
(declare-fun |c_aux_v_main_#t~nondet1_14| () Int)
(declare-fun c_aux_v_ArrVal_25 () (Array Int Int))
(declare-fun c_aux_v_ArrVal_27 () Int)
(declare-fun |c_aux_v_main_#t~nondet1_15| () Int)
(declare-fun c_aux_v_ArrVal_28 () (Array Int Int))
(declare-fun |c_aux_v_main_#t~nondet1_16| () Int)
(declare-fun c_aux_v_ArrVal_29 () (Array Int Int))
(declare-fun c_aux_v_ArrVal_30 () Int)
(declare-fun c_aux_v_ArrVal_31 () (Array Int Int))
(declare-fun c_aux_v_ArrVal_32 () Int)
(declare-fun |c_aux_v_main_#t~nondet1_17| () Int)
(declare-fun c_aux_v_ArrVal_33 () Int)
(declare-fun c_aux_v_ArrVal_34 () Int)
(declare-fun c_aux_v_ArrVal_35 () Int)
(declare-fun |c_aux_v_main_#t~nondet1_18| () Int)
(declare-fun c_aux_v_ArrVal_36 () (Array Int Int))
(declare-fun c_aux_v_ArrVal_38 () Int)
(declare-fun c_aux_v_ArrVal_37 () (Array Int Int))
(declare-fun |c_aux_v_main_#t~nondet1_19| () Int)
(declare-fun |c_aux_v_main_#t~nondet1_20| () Int)
(declare-fun c_aux_v_ArrVal_39 () (Array Int Int))
(declare-fun c_aux_v_ArrVal_40 () Int)
(declare-fun |c_aux_v_main_#t~nondet1_21| () Int)
(declare-fun c_aux_v_ArrVal_42 () (Array Int Int))
(declare-fun c_aux_v_ArrVal_41 () Int)
(declare-fun |c_aux_v_main_#t~nondet1_22| () Int)
(declare-fun c_aux_v_ArrVal_44 () (Array Int Int))
(declare-fun c_aux_v_ArrVal_43 () Int)
(declare-fun c_aux_v_ArrVal_46 () Int)
(declare-fun c_aux_v_ArrVal_45 () Int)
(declare-fun |c_aux_v_main_#t~nondet1_23| () Int)
(declare-fun c_aux_v_ArrVal_48 () Int)
(declare-fun c_aux_v_ArrVal_47 () (Array Int Int))
(declare-fun c_aux_v_ArrVal_50 () (Array Int Int))
(declare-fun |c_aux_v_main_#t~nondet1_24| () Int)
(declare-fun c_aux_v_ArrVal_49 () Int)
(declare-fun c_aux_v_ArrVal_52 () (Array Int Int))
(declare-fun |c_aux_v_main_#t~nondet1_25| () Int)
(declare-fun c_aux_v_ArrVal_51 () Int)
(declare-fun c_aux_v_ArrVal_54 () (Array Int Int))
(declare-fun |c_aux_v_main_#t~nondet1_26| () Int)
(declare-fun c_aux_v_ArrVal_53 () Int)
(declare-fun c_aux_v_ArrVal_56 () (Array Int Int))
(declare-fun |c_aux_v_main_#t~nondet1_27| () Int)
(declare-fun c_aux_v_ArrVal_55 () Int)
(declare-fun c_aux_v_ArrVal_57 () Int)
(declare-fun |c_aux_v_main_#t~nondet1_28| () Int)
(declare-fun c_aux_v_ArrVal_58 () (Array Int Int))
(declare-fun c_aux_v_ArrVal_59 () Int)
(declare-fun c_aux_v_ArrVal_60 () Int)
(declare-fun c_aux_v_ArrVal_62 () (Array Int Int))
(declare-fun |c_aux_v_main_#t~nondet1_29| () Int)
(declare-fun c_aux_v_ArrVal_61 () Int)
(declare-fun |c_aux_v_main_#t~nondet1_30| () Int)
(declare-fun c_aux_v_ArrVal_64 () (Array Int Int))
(declare-fun c_aux_v_ArrVal_63 () Int)
(declare-fun |c_aux_v_main_#t~nondet1_31| () Int)
(declare-fun c_aux_v_ArrVal_66 () (Array Int Int))
(declare-fun c_aux_v_ArrVal_65 () Int)
(declare-fun |c_aux_v_main_#t~nondet1_32| () Int)
(declare-fun c_aux_v_ArrVal_68 () (Array Int Int))
(declare-fun c_aux_v_ArrVal_67 () Int)
(declare-fun |c_aux_v_main_#t~nondet1_33| () Int)
(declare-fun c_aux_v_ArrVal_69 () Int)
(declare-fun c_aux_v_ArrVal_70 () (Array Int Int))
(declare-fun c_aux_v_ArrVal_72 () (Array Int Int))
(declare-fun |c_aux_v_main_#t~nondet1_34| () Int)
(declare-fun c_aux_v_ArrVal_71 () Int)
(declare-fun c_aux_v_ArrVal_73 () (Array Int Int))
(declare-fun |c_aux_v_main_#t~nondet1_35| () Int)
(declare-fun c_aux_v_ArrVal_74 () Int)
(declare-fun c_aux_v_ArrVal_75 () Int)
(declare-fun c_aux_v_ArrVal_76 () Int)
(declare-fun c_aux_v_ArrVal_77 () (Array Int Int))
(declare-fun |c_aux_v_main_#t~nondet1_36| () Int)
(declare-fun c_aux_v_ArrVal_78 () Int)
(declare-fun c_aux_v_ArrVal_79 () Int)
(declare-fun |c_aux_v_main_#t~nondet1_37| () Int)
(declare-fun c_aux_v_ArrVal_80 () (Array Int Int))
(declare-fun |c_aux_v_main_#t~nondet1_38| () Int)
(declare-fun c_aux_v_ArrVal_82 () Int)
(declare-fun c_aux_v_ArrVal_81 () (Array Int Int))
(declare-fun c_aux_v_ArrVal_83 () (Array Int Int))
(declare-fun |c_aux_v_main_#t~nondet1_39| () Int)
(declare-fun c_aux_v_ArrVal_84 () Int)
(declare-fun |c_aux_v_main_#t~nondet1_40| () Int)
(declare-fun c_aux_v_ArrVal_86 () (Array Int Int))
(declare-fun c_aux_v_ArrVal_85 () Int)
(declare-fun |c_aux_v_main_#t~nondet1_41| () Int)
(declare-fun c_aux_v_ArrVal_88 () (Array Int Int))
(declare-fun c_aux_v_ArrVal_87 () Int)
(declare-fun c_aux_v_ArrVal_90 () Int)
(declare-fun |c_aux_v_main_#t~nondet1_42| () Int)
(declare-fun c_aux_v_ArrVal_89 () (Array Int Int))
(declare-fun |c_aux_v_main_#t~nondet1_43| () Int)
(declare-fun c_aux_v_ArrVal_92 () Int)
(declare-fun c_aux_v_ArrVal_91 () (Array Int Int))
(declare-fun c_aux_v_ArrVal_93 () Int)
(declare-fun c_aux_v_ArrVal_94 () Int)
(declare-fun c_aux_v_ArrVal_96 () (Array Int Int))
(declare-fun |c_aux_v_main_#t~nondet1_44| () Int)
(declare-fun c_aux_v_ArrVal_95 () Int)
(declare-fun |c_aux_v_main_#t~nondet1_45| () Int)
(declare-fun c_aux_v_ArrVal_98 () (Array Int Int))
(declare-fun c_aux_v_ArrVal_97 () Int)
(declare-fun c_aux_v_ArrVal_99 () (Array Int Int))
(declare-fun c_aux_v_ArrVal_100 () Int)
(declare-fun |c_aux_v_main_#t~nondet1_46| () Int)
(declare-fun c_aux_v_ArrVal_101 () Int)
(declare-fun |c_aux_v_main_#t~nondet1_47| () Int)
(declare-fun c_aux_v_ArrVal_102 () (Array Int Int))
(declare-fun c_aux_v_ArrVal_104 () Int)
(declare-fun |c_aux_v_main_#t~nondet1_48| () Int)
(declare-fun c_aux_v_ArrVal_103 () (Array Int Int))
(declare-fun c_aux_v_ArrVal_105 () (Array Int Int))
(declare-fun |c_aux_v_main_#t~nondet1_49| () Int)
(declare-fun c_aux_v_ArrVal_106 () Int)
(declare-fun c_aux_v_ArrVal_108 () (Array Int Int))
(declare-fun c_aux_v_ArrVal_107 () Int)
(declare-fun |c_aux_v_main_#t~nondet1_50| () Int)
(declare-fun |c_aux_v_main_#t~nondet1_51| () Int)
(declare-fun c_aux_v_ArrVal_109 () (Array Int Int))
(declare-fun c_aux_v_ArrVal_110 () Int)
(declare-fun |c_aux_v_main_#t~nondet1_52| () Int)
(declare-fun c_aux_v_ArrVal_112 () Int)
(declare-fun c_aux_v_ArrVal_111 () (Array Int Int))
(declare-fun c_aux_v_ArrVal_114 () Int)
(declare-fun c_aux_v_ArrVal_113 () Int)
(declare-fun c_aux_v_ArrVal_115 () Int)
(declare-fun c_aux_v_ArrVal_116 () (Array Int Int))
(declare-fun |c_aux_v_main_#t~nondet1_53| () Int)
(declare-fun c_aux_v_ArrVal_117 () (Array Int Int))
(declare-fun |c_aux_v_main_#t~nondet1_54| () Int)
(declare-fun c_aux_v_ArrVal_118 () Int)
(declare-fun c_aux_v_ArrVal_119 () (Array Int Int))
(declare-fun |c_aux_v_main_#t~nondet1_55| () Int)
(declare-fun c_aux_v_ArrVal_120 () Int)
(declare-fun c_aux_v_ArrVal_122 () Int)
(declare-fun |c_aux_v_main_#t~nondet1_56| () Int)
(declare-fun c_aux_v_ArrVal_121 () (Array Int Int))
(declare-fun c_aux_v_ArrVal_123 () Int)
(declare-fun |c_aux_v_main_#t~nondet1_57| () Int)
(declare-fun c_aux_v_ArrVal_124 () (Array Int Int))
(declare-fun c_aux_v_ArrVal_126 () Int)
(declare-fun |c_aux_v_main_#t~nondet1_58| () Int)
(declare-fun c_aux_v_ArrVal_125 () (Array Int Int))
(declare-fun c_aux_v_ArrVal_127 () (Array Int Int))
(declare-fun |c_aux_v_main_#t~nondet1_59| () Int)
(declare-fun c_aux_v_ArrVal_128 () Int)
(declare-fun c_aux_v_ArrVal_129 () (Array Int Int))
(declare-fun c_aux_v_ArrVal_130 () Int)
(declare-fun |c_aux_v_main_#t~nondet1_60| () Int)
(declare-fun c_aux_v_ArrVal_131 () Int)
(declare-fun c_aux_v_ArrVal_132 () (Array Int Int))
(declare-fun |c_aux_v_main_#t~nondet1_61| () Int)
(declare-fun |c_aux_v_main_#t~nondet1_62| () Int)
(declare-fun c_aux_v_ArrVal_133 () Int)
(declare-fun c_aux_v_ArrVal_134 () (Array Int Int))
(echo "starting trace check")
(push 1)
(declare-fun |#memory_int#0_-1| () (Array Int (Array Int Int)))
(declare-fun |#valid_-1| () (Array Int Int))
(declare-fun |#length_-1| () (Array Int Int))
(declare-fun |#memory_int#1_-1| () (Array Int (Array Int Int)))
(declare-fun |old(#memory_int#0)_-1| () (Array Int (Array Int Int)))
(declare-fun |old(#valid)_-1| () (Array Int Int))
(declare-fun |old(#length)_-1| () (Array Int Int))
(declare-fun |old(#memory_int#1)_-1| () (Array Int (Array Int Int)))
(declare-fun |#StackHeapBarrier_-1| () Int)
(declare-fun |old(#valid)_3| () (Array Int Int))
(declare-fun |old(#length)_3| () (Array Int Int))
(declare-fun |old(#memory_int#1)_3| () (Array Int (Array Int Int)))
(declare-fun |#valid_3| () (Array Int Int))
(declare-fun |#length_3| () (Array Int Int))
(declare-fun |#memory_int#1_3| () (Array Int (Array Int Int)))
(declare-fun |#valid_4| () (Array Int Int))
(declare-fun main_~i~0_4 () Int)
(declare-fun |#length_4| () (Array Int Int))
(declare-fun main_~min~0_4 () Int)
(declare-fun |main_~#a~0.base_4| () Int)
(declare-fun |main_~#a~0.offset_4| () Int)
(declare-fun v_ArrVal_136_fresh_1 () Int)
(declare-fun v_ArrVal_135_fresh_1 () Int)
(declare-fun |main_#t~nondet1_5| () Int)
(declare-fun main_~i~0_5 () Int)
(declare-fun |main_#t~post2_5| () Int)
(declare-fun |#memory_int#1_5| () (Array Int (Array Int Int)))
(declare-fun |v_main_#t~nondet1_63_fresh_1| () Int)
(declare-fun v_ArrVal_137_fresh_1 () (Array Int Int))
(declare-fun v_ArrVal_138_fresh_1 () Int)
(declare-fun |main_#t~nondet1_6| () Int)
(declare-fun main_~i~0_6 () Int)
(declare-fun |main_#t~post2_6| () Int)
(declare-fun |#memory_int#1_6| () (Array Int (Array Int Int)))
(declare-fun v_ArrVal_139_fresh_1 () (Array Int Int))
(declare-fun |v_main_#t~nondet1_64_fresh_1| () Int)
(declare-fun v_ArrVal_140_fresh_1 () Int)
(declare-fun |main_#t~nondet1_7| () Int)
(declare-fun main_~i~0_7 () Int)
(declare-fun |main_#t~post2_7| () Int)
(declare-fun |#memory_int#1_7| () (Array Int (Array Int Int)))
(declare-fun |v_main_#t~nondet1_65_fresh_1| () Int)
(declare-fun v_ArrVal_142_fresh_1 () Int)
(declare-fun v_ArrVal_141_fresh_1 () (Array Int Int))
(declare-fun |main_#t~nondet1_8| () Int)
(declare-fun main_~i~0_8 () Int)
(declare-fun |main_#t~post2_8| () Int)
(declare-fun |#memory_int#1_8| () (Array Int (Array Int Int)))
(declare-fun |v_main_#t~nondet1_66_fresh_1| () Int)
(declare-fun v_ArrVal_143_fresh_1 () Int)
(declare-fun v_ArrVal_144_fresh_1 () (Array Int Int))
(declare-fun |main_#t~nondet1_9| () Int)
(declare-fun main_~i~0_9 () Int)
(declare-fun |main_#t~post2_9| () Int)
(declare-fun |#memory_int#1_9| () (Array Int (Array Int Int)))
(declare-fun v_ArrVal_146_fresh_1 () Int)
(declare-fun |v_main_#t~nondet1_67_fresh_1| () Int)
(declare-fun v_ArrVal_145_fresh_1 () (Array Int Int))
(declare-fun |main_#t~nondet1_10| () Int)
(declare-fun main_~i~0_10 () Int)
(declare-fun |main_#t~post2_10| () Int)
(declare-fun |#memory_int#1_10| () (Array Int (Array Int Int)))
(declare-fun v_ArrVal_148_fresh_1 () Int)
(declare-fun |v_main_#t~nondet1_68_fresh_1| () Int)
(declare-fun v_ArrVal_147_fresh_1 () (Array Int Int))
(declare-fun |main_#t~nondet1_11| () Int)
(declare-fun main_~i~0_11 () Int)
(declare-fun |main_#t~post2_11| () Int)
(declare-fun |#memory_int#1_11| () (Array Int (Array Int Int)))
(declare-fun v_ArrVal_149_fresh_1 () (Array Int Int))
(declare-fun |v_main_#t~nondet1_69_fresh_1| () Int)
(declare-fun v_ArrVal_150_fresh_1 () Int)
(declare-fun |main_#t~nondet1_12| () Int)
(declare-fun main_~i~0_12 () Int)
(declare-fun |main_#t~post2_12| () Int)
(declare-fun |#memory_int#1_12| () (Array Int (Array Int Int)))
(declare-fun v_ArrVal_151_fresh_1 () Int)
(declare-fun v_ArrVal_152_fresh_1 () (Array Int Int))
(declare-fun |v_main_#t~nondet1_70_fresh_1| () Int)
(declare-fun |main_#t~nondet1_13| () Int)
(declare-fun main_~i~0_13 () Int)
(declare-fun |main_#t~post2_13| () Int)
(declare-fun |#memory_int#1_13| () (Array Int (Array Int Int)))
(declare-fun v_ArrVal_154_fresh_1 () Int)
(declare-fun v_ArrVal_153_fresh_1 () (Array Int Int))
(declare-fun |v_main_#t~nondet1_71_fresh_1| () Int)
(declare-fun |main_#t~nondet1_14| () Int)
(declare-fun main_~i~0_14 () Int)
(declare-fun |main_#t~post2_14| () Int)
(declare-fun |#memory_int#1_14| () (Array Int (Array Int Int)))
(declare-fun v_ArrVal_155_fresh_1 () Int)
(declare-fun v_ArrVal_156_fresh_1 () (Array Int Int))
(declare-fun |v_main_#t~nondet1_72_fresh_1| () Int)
(declare-fun |main_#t~nondet1_15| () Int)
(declare-fun main_~i~0_15 () Int)
(declare-fun |main_#t~post2_15| () Int)
(declare-fun |#memory_int#1_15| () (Array Int (Array Int Int)))
(declare-fun |v_main_#t~nondet1_73_fresh_1| () Int)
(declare-fun v_ArrVal_158_fresh_1 () Int)
(declare-fun v_ArrVal_157_fresh_1 () (Array Int Int))
(declare-fun main_~i~0_16 () Int)
(declare-fun main_~i~0_17 () Int)
(declare-fun |main_#t~mem3_18| () Int)
(declare-fun |main_#t~mem3_19| () Int)
(declare-fun |main_#t~mem4_19| () Int)
(declare-fun main_~min~0_19 () Int)
(declare-fun main_~i~0_20 () Int)
(declare-fun |main_#t~mem3_21| () Int)
(declare-fun |main_#t~mem3_22| () Int)
(declare-fun |main_#t~mem4_22| () Int)
(declare-fun main_~min~0_22 () Int)
(declare-fun main_~i~0_23 () Int)
(declare-fun |main_#t~mem3_24| () Int)
(declare-fun |main_#t~mem3_25| () Int)
(declare-fun |main_#t~mem4_25| () Int)
(declare-fun main_~min~0_25 () Int)
(declare-fun main_~i~0_26 () Int)
(declare-fun |main_#t~mem3_27| () Int)
(declare-fun |main_#t~mem3_28| () Int)
(declare-fun |main_#t~mem4_28| () Int)
(declare-fun main_~min~0_28 () Int)
(declare-fun main_~i~0_29 () Int)
(declare-fun |main_#t~mem3_30| () Int)
(declare-fun |main_#t~mem3_31| () Int)
(declare-fun |main_#t~mem4_31| () Int)
(declare-fun main_~min~0_31 () Int)
(declare-fun main_~i~0_32 () Int)
(declare-fun |main_#t~mem3_33| () Int)
(declare-fun |main_#t~mem3_34| () Int)
(declare-fun |main_#t~mem4_34| () Int)
(declare-fun main_~min~0_34 () Int)
(declare-fun main_~i~0_35 () Int)
(declare-fun |main_#t~mem3_36| () Int)
(declare-fun |main_#t~mem3_37| () Int)
(declare-fun |main_#t~mem4_37| () Int)
(declare-fun main_~min~0_37 () Int)
(declare-fun main_~i~0_38 () Int)
(declare-fun |main_#t~mem3_39| () Int)
(declare-fun |main_#t~mem3_40| () Int)
(declare-fun |main_#t~mem4_40| () Int)
(declare-fun main_~min~0_40 () Int)
(declare-fun main_~i~0_41 () Int)
(declare-fun |main_#t~mem3_42| () Int)
(declare-fun |main_#t~mem3_43| () Int)
(declare-fun |main_#t~mem4_43| () Int)
(declare-fun main_~min~0_43 () Int)
(declare-fun main_~i~0_44 () Int)
(declare-fun |main_#t~mem3_45| () Int)
(declare-fun |main_#t~mem3_46| () Int)
(declare-fun |main_#t~mem4_46| () Int)
(declare-fun main_~min~0_46 () Int)
(declare-fun main_~i~0_47 () Int)
(declare-fun |main_#t~mem3_48| () Int)
(declare-fun |main_#t~mem3_49| () Int)
(declare-fun |main_#t~mem4_49| () Int)
(declare-fun main_~min~0_49 () Int)
(declare-fun main_~i~0_50 () Int)
(declare-fun main_~i~0_51 () Int)
(declare-fun main_~x~0_52 () Int)
(declare-fun |main_#t~mem5_53| () Int)
(declare-fun |__VERIFIER_assert_#in~cond_54| () Int)
(declare-fun |main_#t~mem5_54| () Int)
(declare-fun main_~min~0_54 () Int)
(declare-fun __VERIFIER_assert_~cond_55 () Int)
(declare-fun __VERIFIER_assert_~cond_56 () Int)
(assert (! true :named ssa_precond))
(assert (! (not false) :named ssa_postcond))
(assert (! true :named ssa_0_GlobVarAssigCall))
(assert (! true :named ssa_0_LocVarAssigCall))
(assert (! true :named ssa_0_OldVarAssigCall))
(assert (! (and (= (select |#valid_-1| 1) 1) (= (select |#valid_-1| 2) 1) (< 0 |#StackHeapBarrier_-1|) (= (select |#length_-1| 2) 31) (= (select |#valid_-1| 0) 0) (= (select |#length_-1| 1) 2) (= (select (select |#memory_int#0_-1| 1) 1) 0) (= (select (select |#memory_int#0_-1| 1) 0) 48)) :named ssa_1))
(assert (! true :named ssa_2_return))
(assert (! (and (= |old(#valid)_3| |#valid_3|) (= |#length_3| |old(#length)_3|) (= |old(#memory_int#1)_3| |#memory_int#1_3|)) :named ssa_3_GlobVarAssigCall))
(assert (! true :named ssa_3_LocVarAssigCall))
(assert (! (and (= |old(#length)_3| |#length_-1|) (= |#valid_-1| |old(#valid)_3|) (= |old(#memory_int#1)_3| |#memory_int#1_-1|)) :named ssa_3_OldVarAssigCall))
(assert (! (and (not (= |main_~#a~0.base_4| 0)) (= main_~min~0_4 0) (< |#StackHeapBarrier_-1| |main_~#a~0.base_4|) (= v_ArrVal_136_fresh_1 400000) (= |main_~#a~0.offset_4| 0) (= (store |#length_3| |main_~#a~0.base_4| v_ArrVal_136_fresh_1) |#length_4|) (= v_ArrVal_135_fresh_1 1) (= (store |#valid_3| |main_~#a~0.base_4| v_ArrVal_135_fresh_1) |#valid_4|) (= (select |#valid_3| |main_~#a~0.base_4|) 0) (= main_~i~0_4 0)) :named ssa_4))
(assert (! (and (<= 0 (+ |v_main_#t~nondet1_63_fresh_1| 2147483648)) (= main_~i~0_5 (+ main_~i~0_4 1)) (= v_ArrVal_138_fresh_1 |v_main_#t~nondet1_63_fresh_1|) (< main_~i~0_4 100000) (= (store |#memory_int#1_3| |main_~#a~0.base_4| v_ArrVal_137_fresh_1) |#memory_int#1_5|) (= v_ArrVal_137_fresh_1 (store (select |#memory_int#1_3| |main_~#a~0.base_4|) (+ (* main_~i~0_4 4) |main_~#a~0.offset_4|) |v_main_#t~nondet1_63_fresh_1|)) (<= |v_main_#t~nondet1_63_fresh_1| 2147483647)) :named ssa_5))
(assert (! (and (= |#memory_int#1_6| (store |#memory_int#1_5| |main_~#a~0.base_4| v_ArrVal_139_fresh_1)) (<= |v_main_#t~nondet1_64_fresh_1| 2147483647) (= main_~i~0_6 (+ main_~i~0_5 1)) (< main_~i~0_5 100000) (= v_ArrVal_139_fresh_1 (store (select |#memory_int#1_5| |main_~#a~0.base_4|) (+ (* main_~i~0_5 4) |main_~#a~0.offset_4|) |v_main_#t~nondet1_64_fresh_1|)) (= v_ArrVal_140_fresh_1 |v_main_#t~nondet1_64_fresh_1|) (<= 0 (+ |v_main_#t~nondet1_64_fresh_1| 2147483648))) :named ssa_6))
(assert (! (and (= |#memory_int#1_7| (store |#memory_int#1_6| |main_~#a~0.base_4| v_ArrVal_141_fresh_1)) (= main_~i~0_7 (+ main_~i~0_6 1)) (<= |v_main_#t~nondet1_65_fresh_1| 2147483647) (<= 0 (+ |v_main_#t~nondet1_65_fresh_1| 2147483648)) (< main_~i~0_6 100000) (= v_ArrVal_142_fresh_1 |v_main_#t~nondet1_65_fresh_1|) (= v_ArrVal_141_fresh_1 (store (select |#memory_int#1_6| |main_~#a~0.base_4|) (+ (* main_~i~0_6 4) |main_~#a~0.offset_4|) |v_main_#t~nondet1_65_fresh_1|))) :named ssa_7))
(assert (! (and (= (store |#memory_int#1_7| |main_~#a~0.base_4| v_ArrVal_144_fresh_1) |#memory_int#1_8|) (= main_~i~0_8 (+ main_~i~0_7 1)) (= v_ArrVal_143_fresh_1 |v_main_#t~nondet1_66_fresh_1|) (= v_ArrVal_144_fresh_1 (store (select |#memory_int#1_7| |main_~#a~0.base_4|) (+ (* main_~i~0_7 4) |main_~#a~0.offset_4|) v_ArrVal_143_fresh_1)) (< main_~i~0_7 100000) (<= |v_main_#t~nondet1_66_fresh_1| 2147483647) (<= 0 (+ |v_main_#t~nondet1_66_fresh_1| 2147483648))) :named ssa_8))
(assert (! (and (= v_ArrVal_146_fresh_1 |v_main_#t~nondet1_67_fresh_1|) (= main_~i~0_9 (+ main_~i~0_8 1)) (<= |v_main_#t~nondet1_67_fresh_1| 2147483647) (= v_ArrVal_145_fresh_1 (store (select |#memory_int#1_8| |main_~#a~0.base_4|) (+ (* main_~i~0_8 4) |main_~#a~0.offset_4|) |v_main_#t~nondet1_67_fresh_1|)) (<= 0 (+ |v_main_#t~nondet1_67_fresh_1| 2147483648)) (= |#memory_int#1_9| (store |#memory_int#1_8| |main_~#a~0.base_4| v_ArrVal_145_fresh_1)) (< main_~i~0_8 100000)) :named ssa_9))
(assert (! (and (<= |v_main_#t~nondet1_68_fresh_1| 2147483647) (= main_~i~0_10 (+ main_~i~0_9 1)) (= (store (select |#memory_int#1_9| |main_~#a~0.base_4|) (+ (* main_~i~0_9 4) |main_~#a~0.offset_4|) |v_main_#t~nondet1_68_fresh_1|) v_ArrVal_147_fresh_1) (<= 0 (+ |v_main_#t~nondet1_68_fresh_1| 2147483648)) (< main_~i~0_9 100000) (= (store |#memory_int#1_9| |main_~#a~0.base_4| v_ArrVal_147_fresh_1) |#memory_int#1_10|) (= v_ArrVal_148_fresh_1 |v_main_#t~nondet1_68_fresh_1|)) :named ssa_10))
(assert (! (and (= v_ArrVal_150_fresh_1 |v_main_#t~nondet1_69_fresh_1|) (= main_~i~0_11 (+ main_~i~0_10 1)) (= (store |#memory_int#1_10| |main_~#a~0.base_4| v_ArrVal_149_fresh_1) |#memory_int#1_11|) (< main_~i~0_10 100000) (<= |v_main_#t~nondet1_69_fresh_1| 2147483647) (<= 0 (+ |v_main_#t~nondet1_69_fresh_1| 2147483648)) (= v_ArrVal_149_fresh_1 (store (select |#memory_int#1_10| |main_~#a~0.base_4|) (+ (* main_~i~0_10 4) |main_~#a~0.offset_4|) |v_main_#t~nondet1_69_fresh_1|))) :named ssa_11))
(assert (! (and (<= 0 (+ |v_main_#t~nondet1_70_fresh_1| 2147483648)) (= main_~i~0_12 (+ main_~i~0_11 1)) (<= |v_main_#t~nondet1_70_fresh_1| 2147483647) (< main_~i~0_11 100000) (= v_ArrVal_151_fresh_1 |v_main_#t~nondet1_70_fresh_1|) (= (store (select |#memory_int#1_11| |main_~#a~0.base_4|) (+ (* main_~i~0_11 4) |main_~#a~0.offset_4|) v_ArrVal_151_fresh_1) v_ArrVal_152_fresh_1) (= (store |#memory_int#1_11| |main_~#a~0.base_4| v_ArrVal_152_fresh_1) |#memory_int#1_12|)) :named ssa_12))
(assert (! (and (= v_ArrVal_153_fresh_1 (store (select |#memory_int#1_12| |main_~#a~0.base_4|) (+ (* main_~i~0_12 4) |main_~#a~0.offset_4|) |v_main_#t~nondet1_71_fresh_1|)) (<= |v_main_#t~nondet1_71_fresh_1| 2147483647) (= main_~i~0_13 (+ main_~i~0_12 1)) (= v_ArrVal_154_fresh_1 |v_main_#t~nondet1_71_fresh_1|) (= (store |#memory_int#1_12| |main_~#a~0.base_4| v_ArrVal_153_fresh_1) |#memory_int#1_13|) (< main_~i~0_12 100000) (<= 0 (+ |v_main_#t~nondet1_71_fresh_1| 2147483648))) :named ssa_13))
(assert (! (and (<= 0 (+ |v_main_#t~nondet1_72_fresh_1| 2147483648)) (= |#memory_int#1_14| (store |#memory_int#1_13| |main_~#a~0.base_4| v_ArrVal_156_fresh_1)) (= main_~i~0_14 (+ main_~i~0_13 1)) (= v_ArrVal_155_fresh_1 |v_main_#t~nondet1_72_fresh_1|) (= v_ArrVal_156_fresh_1 (store (select |#memory_int#1_13| |main_~#a~0.base_4|) (+ (* main_~i~0_13 4) |main_~#a~0.offset_4|) v_ArrVal_155_fresh_1)) (< main_~i~0_13 100000) (<= |v_main_#t~nondet1_72_fresh_1| 2147483647)) :named ssa_14))
(assert (! (and (<= 0 (+ |v_main_#t~nondet1_73_fresh_1| 2147483648)) (= (store |#memory_int#1_14| |main_~#a~0.base_4| v_ArrVal_157_fresh_1) |#memory_int#1_15|) (= main_~i~0_15 (+ main_~i~0_14 1)) (< main_~i~0_14 100000) (= v_ArrVal_157_fresh_1 (store (select |#memory_int#1_14| |main_~#a~0.base_4|) (+ (* main_~i~0_14 4) |main_~#a~0.offset_4|) |v_main_#t~nondet1_73_fresh_1|)) (= v_ArrVal_158_fresh_1 |v_main_#t~nondet1_73_fresh_1|) (<= |v_main_#t~nondet1_73_fresh_1| 2147483647)) :named ssa_15))
(assert (! (<= 100000 main_~i~0_15) :named ssa_16))
(assert (! (= main_~i~0_17 0) :named ssa_17))
(assert (! (and (= |main_#t~mem3_18| (select (select |#memory_int#1_15| |main_~#a~0.base_4|) (+ (* main_~i~0_17 4) |main_~#a~0.offset_4|))) (< main_~i~0_17 100000)) :named ssa_18))
(assert (! (and (< |main_#t~mem3_18| main_~min~0_4) (= (select (select |#memory_int#1_15| |main_~#a~0.base_4|) (+ (* main_~i~0_17 4) |main_~#a~0.offset_4|)) main_~min~0_19)) :named ssa_19))
(assert (! (= main_~i~0_20 (+ main_~i~0_17 1)) :named ssa_20))
(assert (! (and (= |main_#t~mem3_21| (select (select |#memory_int#1_15| |main_~#a~0.base_4|) (+ (* main_~i~0_20 4) |main_~#a~0.offset_4|))) (< main_~i~0_20 100000)) :named ssa_21))
(assert (! (and (< |main_#t~mem3_21| main_~min~0_19) (= (select (select |#memory_int#1_15| |main_~#a~0.base_4|) (+ (* main_~i~0_20 4) |main_~#a~0.offset_4|)) main_~min~0_22)) :named ssa_22))
(assert (! (= main_~i~0_23 (+ main_~i~0_20 1)) :named ssa_23))
(assert (! (and (= |main_#t~mem3_24| (select (select |#memory_int#1_15| |main_~#a~0.base_4|) (+ (* main_~i~0_23 4) |main_~#a~0.offset_4|))) (< main_~i~0_23 100000)) :named ssa_24))
(assert (! (and (< |main_#t~mem3_24| main_~min~0_22) (= (select (select |#memory_int#1_15| |main_~#a~0.base_4|) (+ (* main_~i~0_23 4) |main_~#a~0.offset_4|)) main_~min~0_25)) :named ssa_25))
(assert (! (= main_~i~0_26 (+ main_~i~0_23 1)) :named ssa_26))
(assert (! (and (= |main_#t~mem3_27| (select (select |#memory_int#1_15| |main_~#a~0.base_4|) (+ (* main_~i~0_26 4) |main_~#a~0.offset_4|))) (< main_~i~0_26 100000)) :named ssa_27))
(assert (! (and (< |main_#t~mem3_27| main_~min~0_25) (= (select (select |#memory_int#1_15| |main_~#a~0.base_4|) (+ (* main_~i~0_26 4) |main_~#a~0.offset_4|)) main_~min~0_28)) :named ssa_28))
(assert (! (= main_~i~0_29 (+ main_~i~0_26 1)) :named ssa_29))
(assert (! (and (= |main_#t~mem3_30| (select (select |#memory_int#1_15| |main_~#a~0.base_4|) (+ (* main_~i~0_29 4) |main_~#a~0.offset_4|))) (< main_~i~0_29 100000)) :named ssa_30))
(assert (! (and (< |main_#t~mem3_30| main_~min~0_28) (= (select (select |#memory_int#1_15| |main_~#a~0.base_4|) (+ (* main_~i~0_29 4) |main_~#a~0.offset_4|)) main_~min~0_31)) :named ssa_31))
(assert (! (= main_~i~0_32 (+ main_~i~0_29 1)) :named ssa_32))
(assert (! (and (= |main_#t~mem3_33| (select (select |#memory_int#1_15| |main_~#a~0.base_4|) (+ (* main_~i~0_32 4) |main_~#a~0.offset_4|))) (< main_~i~0_32 100000)) :named ssa_33))
(assert (! (and (< |main_#t~mem3_33| main_~min~0_31) (= (select (select |#memory_int#1_15| |main_~#a~0.base_4|) (+ (* main_~i~0_32 4) |main_~#a~0.offset_4|)) main_~min~0_34)) :named ssa_34))
(assert (! (= main_~i~0_35 (+ main_~i~0_32 1)) :named ssa_35))
(assert (! (and (= |main_#t~mem3_36| (select (select |#memory_int#1_15| |main_~#a~0.base_4|) (+ (* main_~i~0_35 4) |main_~#a~0.offset_4|))) (< main_~i~0_35 100000)) :named ssa_36))
(assert (! (and (< |main_#t~mem3_36| main_~min~0_34) (= (select (select |#memory_int#1_15| |main_~#a~0.base_4|) (+ (* main_~i~0_35 4) |main_~#a~0.offset_4|)) main_~min~0_37)) :named ssa_37))
(assert (! (= main_~i~0_38 (+ main_~i~0_35 1)) :named ssa_38))
(assert (! (and (= |main_#t~mem3_39| (select (select |#memory_int#1_15| |main_~#a~0.base_4|) (+ (* main_~i~0_38 4) |main_~#a~0.offset_4|))) (< main_~i~0_38 100000)) :named ssa_39))
(assert (! (and (< |main_#t~mem3_39| main_~min~0_37) (= (select (select |#memory_int#1_15| |main_~#a~0.base_4|) (+ (* main_~i~0_38 4) |main_~#a~0.offset_4|)) main_~min~0_40)) :named ssa_40))
(assert (! (= main_~i~0_41 (+ main_~i~0_38 1)) :named ssa_41))
(assert (! (and (= |main_#t~mem3_42| (select (select |#memory_int#1_15| |main_~#a~0.base_4|) (+ (* main_~i~0_41 4) |main_~#a~0.offset_4|))) (< main_~i~0_41 100000)) :named ssa_42))
(assert (! (and (< |main_#t~mem3_42| main_~min~0_40) (= (select (select |#memory_int#1_15| |main_~#a~0.base_4|) (+ (* main_~i~0_41 4) |main_~#a~0.offset_4|)) main_~min~0_43)) :named ssa_43))
(assert (! (= main_~i~0_44 (+ main_~i~0_41 1)) :named ssa_44))
(assert (! (and (= |main_#t~mem3_45| (select (select |#memory_int#1_15| |main_~#a~0.base_4|) (+ (* main_~i~0_44 4) |main_~#a~0.offset_4|))) (< main_~i~0_44 100000)) :named ssa_45))
(assert (! (and (< |main_#t~mem3_45| main_~min~0_43) (= (select (select |#memory_int#1_15| |main_~#a~0.base_4|) (+ (* main_~i~0_44 4) |main_~#a~0.offset_4|)) main_~min~0_46)) :named ssa_46))
(assert (! (= main_~i~0_47 (+ main_~i~0_44 1)) :named ssa_47))
(assert (! (and (= |main_#t~mem3_48| (select (select |#memory_int#1_15| |main_~#a~0.base_4|) (+ (* main_~i~0_47 4) |main_~#a~0.offset_4|))) (< main_~i~0_47 100000)) :named ssa_48))
(assert (! (and (< |main_#t~mem3_48| main_~min~0_46) (= (select (select |#memory_int#1_15| |main_~#a~0.base_4|) (+ (* main_~i~0_47 4) |main_~#a~0.offset_4|)) main_~min~0_49)) :named ssa_49))
(assert (! (= main_~i~0_50 (+ main_~i~0_47 1)) :named ssa_50))
(assert (! (<= 100000 main_~i~0_50) :named ssa_51))
(assert (! (= main_~x~0_52 0) :named ssa_52))
(assert (! (and (< main_~x~0_52 100000) (= |main_#t~mem5_53| (select (select |#memory_int#1_15| |main_~#a~0.base_4|) (+ (* main_~x~0_52 4) |main_~#a~0.offset_4|)))) :named ssa_53))
(assert (! true :named ssa_54_GlobVarAssigCall))
(assert (! (= |__VERIFIER_assert_#in~cond_54| (ite (<= main_~min~0_49 |main_#t~mem5_53|) 1 0)) :named ssa_54_LocVarAssigCall))
(assert (! true :named ssa_54_OldVarAssigCall))
(assert (! (= __VERIFIER_assert_~cond_55 |__VERIFIER_assert_#in~cond_54|) :named ssa_55))
(assert (! (= __VERIFIER_assert_~cond_55 0) :named ssa_56))
(assert (! true :named ssa_57))
(check-sat)
(get-interpolants (and ssa_0_LocVarAssigCall ssa_precond ssa_0_GlobVarAssigCall ssa_0_OldVarAssigCall ssa_2_return ssa_1) (and ssa_3_OldVarAssigCall ssa_3_LocVarAssigCall ssa_3_GlobVarAssigCall) ssa_4 ssa_5 ssa_6 ssa_7 ssa_8 ssa_9 ssa_10 ssa_11 ssa_12 ssa_13 ssa_14 ssa_15 ssa_16 ssa_17 ssa_18 ssa_19 ssa_20 ssa_21 ssa_22 ssa_23 ssa_24 ssa_25 ssa_26 ssa_27 ssa_28 ssa_29 ssa_30 ssa_31 ssa_32 ssa_33 ssa_34 ssa_35 ssa_36 ssa_37 ssa_38 ssa_39 ssa_40 ssa_41 ssa_42 ssa_43 ssa_44 ssa_45 ssa_46 ssa_47 ssa_48 ssa_49 ssa_50 ssa_51 ssa_52 ssa_53 (and ssa_54_OldVarAssigCall ssa_54_GlobVarAssigCall ssa_54_LocVarAssigCall) ssa_55 ssa_56 (and ssa_57 ssa_postcond))
(echo "finished trace check")
(pop 1)
(echo "starting trace check")
(push 1)
(declare-fun |#memory_int#0_-2| () (Array Int (Array Int Int)))
(declare-fun |#valid_-2| () (Array Int Int))
(declare-fun |#length_-2| () (Array Int Int))
(declare-fun |#memory_int#1_-2| () (Array Int (Array Int Int)))
(declare-fun |old(#memory_int#0)_-2| () (Array Int (Array Int Int)))
(declare-fun |old(#valid)_-2| () (Array Int Int))
(declare-fun |old(#length)_-2| () (Array Int Int))
(declare-fun |old(#memory_int#1)_-2| () (Array Int (Array Int Int)))
(declare-fun |#StackHeapBarrier_-1| () Int)
(assert (! true :named ssa_precond))
(assert (! (not true) :named ssa_postcond))
(assert (! (and (= (select |#valid_-2| 1) 1) (= (select |#valid_-2| 2) 1) (< 0 |#StackHeapBarrier_-1|) (= (select |#length_-2| 2) 31) (= (select |#valid_-2| 0) 0) (= (select |#length_-2| 1) 2) (= (select (select |#memory_int#0_-2| 1) 1) 0) (= (select (select |#memory_int#0_-2| 1) 0) 48)) :named ssa_0))
(assert (! true :named ssa_1_return))
(assert (! true :named ssa_-2_PendingContext))
(assert (! true :named ssa_-2_LocVarAssignPendingContext))
(assert (! true :named ssa_-2_OldVarAssignPendingContext))
(check-sat)
(get-interpolants (and ssa_0 ssa_precond) (and ssa_-2_PendingContext ssa_-2_LocVarAssignPendingContext ssa_-2_OldVarAssignPendingContext ssa_1_return ssa_postcond))
(echo "finished trace check")
(pop 1)
(exit)
